TASKS = {PROCESS_REQUEST, LOG_REQUEST, PREPARE_CONTRACT, SIGN_CONTRACT};
USERS = {ALICE, BOB, CHARLIE, DAVID};

/* indexed on Tasks */
AUTHORIZED = [{ALICE, BOB}, {BOB, CHARLIE}, {ALICE, DAVID}, {CHARLIE, DAVID}];

/* Parial order*/
nPO = 4;
PO = [| PROCESS_REQUEST,  LOG_REQUEST      | 
        PROCESS_REQUEST,  PREPARE_CONTRACT |
        LOG_REQUEST,      SIGN_CONTRACT    | 
        PREPARE_CONTRACT, SIGN_CONTRACT    |];

/* "Equal" constraints */
nEq = 1;
EqC = [| PROCESS_REQUEST, LOG_REQUEST |];

/* "Different" constraints */
nDiff = 2;
DiffC = [| PROCESS_REQUEST, PREPARE_CONTRACT |
           PREPARE_CONTRACT, SIGN_CONTRACT  |];

